c description: Random 3-CNF over 26 variables and 111 clauses
c generator: CNFgen (0.9.2)
c copyright: (C) 2012-2022 Massimo Lauria <massimo.lauria@uniroma1.it>
c url: https://massimolauria.net/cnfgen
c command line: cnfgen --output CNF_4.28/26_bit_111_700.cnf randkcnf 3 26 111
c
p cnf 26 111
-4 6 22 0
-4 19 -22 0
-2 21 23 0
1 -2 19 0
-7 10 -20 0
10 14 19 0
4 10 20 0
4 6 -25 0
-3 5 22 0
2 -14 -17 0
-7 15 -16 0
-17 19 -24 0
1 17 21 0
-3 -10 12 0
-1 -23 26 0
7 14 -22 0
-15 -23 -24 0
-1 -5 -8 0
5 -9 10 0
-1 12 13 0
-15 -19 -21 0
-13 19 24 0
-10 -11 21 0
7 -8 9 0
7 -12 16 0
-3 -13 19 0
2 -3 -17 0
-8 -14 -24 0
3 13 -26 0
1 19 26 0
1 5 -7 0
6 10 -12 0
-6 -11 -23 0
5 17 -19 0
5 -7 -8 0
2 4 14 0
-1 -2 4 0
-2 18 -20 0
-1 -4 8 0
3 12 26 0
4 -20 21 0
-11 13 -25 0
-12 -14 22 0
-7 16 -18 0
11 -13 -20 0
6 14 18 0
13 14 16 0
-15 -22 25 0
-1 -3 -19 0
3 -8 -12 0
3 -11 -14 0
2 18 19 0
-10 17 -23 0
-4 8 16 0
10 -15 -22 0
-11 -19 -21 0
-13 -16 -23 0
-5 20 25 0
-6 10 -12 0
7 11 20 0
-3 12 -23 0
-6 -7 19 0
4 -17 -18 0
13 -17 -22 0
-3 13 25 0
-12 -24 -26 0
-6 -9 -13 0
15 18 19 0
-18 -21 24 0
3 4 -20 0
3 -5 -25 0
-2 15 24 0
9 -10 20 0
-1 8 22 0
11 -15 -16 0
-10 -14 -20 0
4 -8 -17 0
-5 17 22 0
16 22 -25 0
6 8 19 0
9 -18 -26 0
4 -7 -15 0
-6 15 -23 0
-11 -22 -23 0
-2 -7 -19 0
-10 25 26 0
10 14 23 0
-10 -12 24 0
6 -21 23 0
-13 21 -26 0
1 -16 -25 0
-16 -19 -24 0
-3 4 -22 0
16 17 -25 0
11 -12 -23 0
-7 8 -26 0
-6 -20 -24 0
9 -18 -25 0
3 -5 24 0
1 6 23 0
5 -6 20 0
-3 -17 26 0
-10 13 15 0
4 5 24 0
-4 -12 -20 0
-8 -12 17 0
8 14 -23 0
-10 -12 21 0
-1 9 12 0
-9 16 24 0
6 18 23 0
